NAME: MyData10
COMMENT: 10 nodes generated to conduct algorithm efficiency
TYPE: TSP
DIMENSION: 10
EDGE_WEIGHT_TYPE: EXPLICIT
DISPLAY_DATA_TYPE: TWOD_DISPLAY
EDGE_WEIGHT_FORMAT: FULL MATRIX
EDGE_WEIGHT_SECTION:
0 5147 7943 6491 541 2708 8989 7522 2287 3217
5147 0 2663 9218 5100 9547 7489 7169 3934 7005
7943 2663 0 8414 4465 3510 8135 5021 7970 7961
6491 9218 8414 0 3440 2609 2566 9414 9625 8009
541 5100 4465 3440 0 3153 4992 1065 7154 939
2708 9547 3510 2609 3153 0 2565 2590 2712 4037
8989 7489 8135 2566 4992 2565 0 54 5372 8907
7522 7169 5021 9414 1065 2590 54 0 8351 5602
2287 3934 7970 9625 7154 2712 5372 8351 0 5338
3217 7005 7961 8009 939 4037 8907 5602 5338 0
EOF
